NAME: rbg092a.sop
TYPE: SOP
COMMENT: Stacker crane application (Norbert Ascheuer)
DIMENSION: 94
EDGE_WEIGHT_TYPE: EXPLICIT
EDGE_WEIGHT_FORMAT: FULL_MATRIX 
EDGE_WEIGHT_SECTION
  94
   0   0   0   0   0   0   0   0   0   0   0   0   0   0   0   0   0   0   0   0   0   0   0   0   0   0   0   0   0   0   0   0   0   0   0   0   0   0   0   0   0   0   0   0   0   0   0   0   0   0   0   0   0   0   0   0   0   0   0   0   0   0   0   0   0   0   0   0   0   0   0   0   0   0   0   0   0   0   0   0   0   0   0   0   0   0   0   0   0   0   0   0   0 1000000
  -1   0  29  24   0   0  12   0  23  26  27   0   0  24  24   0  11   0  14   0  25   0   0  27   0  15  29  28  11  24  15  23   0   0   0   0   0  27   0   0  23  18  31  23  10  18  15   0  18   0  33  11  20   0   0  25   0  24   0   0  18   0  31   0  30   0   0   0  24   0  24   0   0   0   0  18  11   0  25   0   0  24  21   0  24   0  16  10  23  24  23  24  27   0
  -1   0   0  24  11  11  10  11  23  25  25  11  11  24  24  11   0  11  15  11  24  11  11  25  11  12  28  27   6  24  12  21  11  11  11  11  11  25  11  11  20  15  31  23  10  19  12  11  15  11  31   0  16  11  11  24  11  24  11  11  15  11  31  11  28  11  11  11  24  11  24  11  11  11  11  15   0  11  24  11  11  23  18  11  23  11  14  10  20  23  20  23  25   0
  -1  24  16   0  25  25  24  25  12  11  12  25  25  19  21  25  24  25  24  25  10  25  25  13  25  23  16  14  24  21  23  14  25  25  25  25  25  12  25  25  15  20  23  13  24  23  23  25  20  25  23  24  18  25  25   9  25  22  25  25  20  25  23  25  18  25  25  25  10  25  10  25  25  25  25  20  24  25   9  25  25  11  16  25  11  25  21  24  15  11  15  12  12   0
  -1  -1  -1  -1   0  14  15  14  23  25  26  14  14  24  24  14  15  14   0  14  25  14  14  26  14  15  28  27  10  24  14  23  14  14  14  14  14  26  14  14  21  16  31  23  15  12  14  14  16  14  31  15  18  14  14  24  14  24  14  14  16  14  31  14  29  14  14  14  24  14  24  14  14  14  14  16  15  14  24  14  14  24  20  14  24  14  15  15  21  24  21  23  26   0
  -1  -1  -1  -1  12   0  10  12  20  24  24  12  12  23  23  12  11  12  12  12  24  12  12  24  12  11  27  25  11  23  11  18  12  12  12  12  12  24  12  12  16  12  29  20  12  10  11  12  12  12  30  11  14  12  12  23  12  23  12  12  12  12  29  12  27  12  12  12  23  12  23  12  12  12  12  12  11  12  23  12  12  23  15  12  23  12  12  12  16  23  16  21  24   0
  -1  -1  -1  -1   0   0   0   0  23  26  27   0   0  24  24   0  11   0  14   0  25   0   0  27   0  15  29  28  11  24  15  23   0   0   0   0   0  27   0   0  23  18  31  23  10  18  15   0  18   0  33  11  20   0   0  25   0  24   0   0  18   0  31   0  30   0   0   0  24   0  24   0   0   0   0  18  11   0  25   0   0  24  21   0  24   0  16  10  23  24  23  24  27   0
  -1  -1  -1  -1  23  23  20   0  10  16  18  23  23  12  12  23  21  23  23  23  15  23  23  18  23  15  23  21  21  12  15   4  23  23  23  23  23  18  23  23  10  12  24  10  23  16  15  23  12  23  25  21  12  23  23  14  23  14  23  23  12  23  24  23  23  23  23  23  12  23  12  23  23  23  23  12  21  23  14  23  23  12  11  23  12  23  14  23  10  12  10  11  18   0
  -1  -1  -1  -1  12  12   0  12   0  24  25  12  12  23  23  12  10  12  15  12  24  12  12  25  12  12  27  26  10  23  12  20  12  12  12  12  12  25  12  12  18  14  30  21  11  19  12  12  14  12  31  10  15  12  12  24  12  24  12  12  14  12  30  12  28  12  12  12  23  12  23  12  12  12  12  14  10  12  24  12  12  23  16  12  23  12  12  11  18  23  18  23  25   0
  -1  -1  -1  -1  27  27  25  27  16   0   9  27  27  12  12  27  25  27  26  27  15  27  27   0  27  24  12  15  25  12  24  18  27  27  27  27  27   9  27  27  20  23  18  16  26  24  24  27  23  27  20  25  23  27  27  12  27  12  27  27  23  27  18  27  14  27  27  27  12  27  12  27  27  27  27  23  25  27  12  27  27  14  21  27  15  27  23  26  20  14  20  15   9   0
  -1  -1  -1  -1  26  26  24  26  15   0   0  26  26  21  23  26  25  26  25  26  10  26  26  15  26  23  15  12  25  23  23  16  26  26  26  26  26  10  26  26  18  23  20  15  25  24  23  26  23  26  21  25  21  26  26  11  26  24  26  26  23  26  20  26  15  26  26  26  12  26  12  26  26  26  26  23  25  26  11  26  26  12  20  26  12  26  23  25  18  12  18  14  10   0
  -1  -1  -1  -1  -1  18  14  18  14  23  23   0  18  19  21  18  15  18  16  18  21  18  18  23  18  11  24  24  15  21  11  12  18  18  18  18  18  23  18  18  12   5  27  14  16  18  11  18   4  18  27  15  10  18  18  20  18  22  18  18  10  18  27  18  25  18  18  18  18  18  18  18  18  18  18   7  15  18  20  18  18  16  11  18  16  18  10  16  12  16  12  15  23   0
  -1  -1  -1  -1  -1  -1  -1  -1  -1  -1  -1  24   0  15  17  24  24  24  24  24  11  24  24  12  24  21  18  15  24  17  21  12  24  24  24  24  24  12  24  24  14  18  23  12  24  23  21  24  18  24  23  24  16  24  24  10  24  18  24  24  18  24  23  24  20  24  24  24   1  24   4  24  24  24  24  18  24  24  10  24  24  10  15  24  10  24  20  24  14  10  14  11  12   0
  -1  -1  -1  -1  -1  -1  -1  -1  -1  -1  -1  -1  -1   0  23  25  24  25  24  25  10  25  25  15  25  23  16  14  24  23  23  14  25  25  25  25  25  12  25  25  15  20  23  15  24  23  23  25  20  25  23  24  18  25  25  10  25  24  25  25  20  25  23  25  18  25  25  25  10  25  10  25  25  25  25  20  24  25  10  25  25  11  16  25  11  25  21  24  15  11  15  12  12   0
  -1  -1  -1  -1  -1  -1  -1  -1  -1  -1  -1  -1  -1  18   0  25  24  25  24  25  10  25  25  12  25  23  16  14  24  20  23  14  25  25  25  25  25  12  25  25  15  20  23  12  24  23  23  25  20  25  23  24  18  25  25   7  25  21  25  25  20  25  23  25  18  25  25  25  10  25  10  25  25  25  25  20  24  25   7  25  25  11  16  25  11  25  21  24  15  11  15  12  12   0
  -1  -1  -1  -1  -1  -1  -1  -1  -1  -1  -1  -1  -1  -1  -1   0  24  24  24  24  11  24  24  12  24  21  18  15  24  20  21  12  24  24  24  24  24  12  24  24  14  18  23  12  24  23  21  24  18  24  23  24  16  24  24  10  24  21  24  24  18  24  23  24  20  24  24  24   3  24   7  24  24  24  24  18  24  24  10  24  24  10  15  24  10  24  20  24  14  10  14  11  12   0
  -1  -1  -1  -1  -1  -1  -1  -1  -1  -1  -1  -1  -1  -1  -1   0   0   0  14   0  25   0   0  27   0  15  29  28  11  24  15  23   0   0   0   0   0  27   0   0  23  18  31  23  10  18  15   0  18   0  33  11  20   0   0  25   0  24   0   0  18   0  31   0  30   0   0   0  24   0  24   0   0   0   0  18  11   0  25   0   0  24  21   0  24   0  16  10  23  24  23  24  27   0
  -1  -1  -1  -1  -1  -1  -1  -1  -1  -1  -1  -1  -1  -1  -1  18  15   0  16  18  21  18  18  23  18  11  24  24  15  18  11  12  18  18  18  18  18  23  18  18  12   2  27  14  16  12  11  18   3  18  27  15  10  18  18  20  18  18  18  18   2  18  27  18  25  18  18  18  18  18  18  18  18  18  18   0  15  18  20  18  18  16  11  18  16  18  10  16  12  16  12  15  23   0
  -1  -1  -1  -1  -1  -1  -1  -1  -1  -1  -1  -1  -1  -1  -1  11   0  11   0  11  24  11  11  25  11  12  28  27   6  24  12  21  11  11  11  11  11  25  11  11  20  15  31  23  10  19  12  11  15  11  31   0  16  11  11  24  11  24  11  11  15  11  31  11  28  11  11  11  24  11  24  11  11  11  11  15   0  11  24  11  11  23  18  11  23  11  14  10  20  23  20  23  25   0
  -1  -1  -1  -1  -1  -1  -1  -1  -1  -1  -1  -1  -1  -1  -1  24  24  24  24   0  11  24  24  12  24  21  18  15  24  17  21  12  24  24  24  24  24  12  24  24  14  18  23  12  24  23  21  24  18  24  23  24  16  24  24  10  24  18  24  24  18  24  23  24  20  24  24  24   1  24   4  24  24  24  24  18  24  24  10  24  24  10  15  24  10  24  20  24  14  10  14  11  12   0
  -1  -1  -1  -1  -1  -1  -1  -1  -1  -1  -1  -1  -1  -1  -1   0  11   0  14   0   0   0   0  27   0  15  29  28  11  24  15  23   0   0   0   0   0  27   0   0  23  18  31  23  10  18  15   0  18   0  33  11  20   0   0  25   0  24   0   0  18   0  31   0  30   0   0   0  24   0  24   0   0   0   0  18  11   0  25   0   0  24  21   0  24   0  16  10  23  24  23  24  27   0
  -1  -1  -1  -1  -1  -1  -1  -1  -1  -1  -1  -1  -1  -1  -1  23  23  23  23  23  14   0  23  16  23  16  23  20  23  12  16  10  23  23  23  23  23  16  23  23  11  14  24   4  23  18  16  23  14  23  24  23  12  23  23  12  23  14  23  23  14  23  24  23  23  23  23  23  12  23  12  23  23  23  23  14  23  23  12  23  23  11  12  23  11  23  15  23  11  11  11  10  16   0
  -1  -1  -1  -1  -1  -1  -1  -1  -1  -1  -1  -1  -1  -1  -1  25  24  25  24  25  10  25   0  15  25  23  16  14  24  23  23  14  25  25  25  25  25  12  25  25  15  20  23  15  24  23  23  25  20  25  23  24  18  25  25  10  25  24  25  25  20  25  23  25  18  25  25  25  10  25  10  25  25  25  25  20  24  25  10  25  25  11  16  25  11  25  21  24  15  11  15  12  12   0
  -1  -1  -1  -1  -1  -1  -1  -1  -1  -1  -1  -1  -1  -1  -1  25  24  25  25  25   0  25  25   0  25  23  15  12  24  23  23  15  25  25  25  25  25  11  25  25  16  21  21  15  25  23  23  25  21  25  23  24  20  25  25  10  25  24  25  25  21  25  21  25  16  25  25  25  11  25  11  25  25  25  25  21  24  25  10  25  25  12  18  25  12  25  23  25  16  12  16  12  11   0
  -1  -1  -1  -1  -1  -1  -1  -1  -1  -1  -1  -1  -1  -1  -1  -1  24  25  24  25  10  25  25  12   0  23  16  14  24  17  23  14  25  25  25  25  25  12  25  25  15  20  23  12  24  23  23  25  20  25  23  24  18  25  25   4  25  18  25  25  20  25  23  25  18  25  25  25  10  25  10  25  25  25  25  20  24  25   4  25  25  11  16  25  11  25  21  24  15  11  15  12  12   0
  -1  -1  -1  -1  -1  -1  -1  -1  -1  -1  -1  -1  -1  -1  -1  -1  11   0  14   0  25   0   0  27   0   0  29  28  11  24  15  23   0   0   0   0   0  27   0   0  23  18  31  23  10  18  15   0  18   0  33  11  20   0   0  25   0  24   0   0  18   0  31   0  30   0   0   0  24   0  24   0   0   0   0  18  11   0  25   0   0  24  21   0  24   0  16  10  23  24  23  24  27   0
  -1  -1  -1  -1  -1  -1  -1  -1  -1  -1  -1  -1  -1  -1  -1  -1  -1  -1  15  15  -1  15  15  24  15   0   0  24  12  23   9  15  15  15  15  15  15  24  15  15  14  11  28  16  14  19  10  15  11  15  28  12  12  15  15  23  15  24  15  15  11  15  28  15  26  15  15  15  21  15  21  15  15  15  15  11  12  15  23  15  15  20  12  15  20  15  10  14  14  20  14  18  24   0
  -1  -1  -1  -1  -1  -1  -1  -1  -1  -1  -1  -1  -1  -1  -1  -1  -1   0  14   0  25   0   0  27   0  15  29   0  11  24  15  23   0   0   0   0   0  27   0   0  23  18  31  23  10  18  15   0  18   0  33  11  20   0   0  25   0  24   0   0  18   0  31   0  30   0   0   0  24   0  24   0   0   0   0  18  11   0  25   0   0  24  21   0  24   0  16  10  23  24  23  24  27   0
  -1  -1  -1  -1  -1  -1  -1  -1  -1  -1  -1  -1  -1  -1  -1  -1  -1  -1  -1  -1  -1  -1  28  15  28  24  15   0   0  23  24  21  28  28  28  28  28  11  28  28  23  24  15  20  27  25  24  28  24  28  16  27  23  28  28  14  28  24  28  28  24  28  15  28  12  28  28  28  15  28  15  28  28  28  28  24  27  28  14  28  28  16  23  28  16  28  24  27  23  16  23  18  11   0
  -1  -1  -1  -1  -1  -1  -1  -1  -1  -1  -1  -1  -1  -1  -1  -1  -1  -1  -1  -1  -1  -1  25  15  25  23  16  14  24   0  23  14  25  25  25  25  25  12  25  25  15  20  23  15  24  23  23  25  20  25  23  24  18  25  25  10  25  24  25  25  20  25  23  25  18  25  25  25  10  25  10  25  25  25  25  20  24  25  10  25  25  11  16  25  11  25  21  24  15  11  15  12  12   0
  -1  -1  -1  -1  -1  -1  -1  -1  -1  -1  -1  -1  -1  -1  -1  -1  -1  -1  -1  -1  -1  -1  -1  -1  15   1  25  24  12  21   0  15  15  15  15  15  15  24  15  15  14  11  28  16  14  18   9  15  11  15  28  12  12  15  15  23  15  22  15  15  11  15  28  15  26  15  15  15  21  15  21  15  15  15  15  11  12  15  23  15  15  20  12  15  20  15  10  14  14  20  14  18  24   0
  -1  -1  -1  -1  -1  -1  -1  -1  -1  -1  -1  -1  -1  -1  -1  -1  -1  -1  -1  -1  -1  -1  -1  -1  -1   0  25  24  12  23   9   0  15  15  15  15  15  24  15  15  14  11  28  16  14  19  10  15  11  15  28  12  12  15  15  23  15  24  15  15  11  15  28  15  26  15  15  15  21  15  21  15  15  15  15  11  12  15  23  15  15  20  12  15  20  15  10  14  14  20  14  18  24   0
  -1  -1  -1  -1  -1  -1  -1  -1  -1  -1  -1  -1  -1  -1  -1  -1  -1  -1  -1  -1  -1  -1  -1  -1  -1  -1  -1  -1  20  16  14  10   0  23  23  23  23  20  23  23   1  12  25  11  21  15  14  23  12  23  25  20  11  23  23  15  23  17  23  23  12  23  25  23  24  23  23  23  14  23  14  23  23  23  23  12  20  23  15  23  23  12  10  23  12  23  12  21   1  12   1  12  20   0
  -1  -1  -1  -1  -1  -1  -1  -1  -1  -1  -1  -1  -1  -1  -1  -1  -1  -1  -1  -1  -1  -1  -1  -1  -1  -1  -1  -1  24  16  23  14  25   0  25  25  25  12  25  25  15  20  23  12  24  23  23  25  20  25  23  24  18  25  25   3  25  17  25  25  20  25  23  25  18  25  25  25  10  25  10  25  25  25  25  20  24  25   3  25  25  11  16  25  11  25  21  24  15  11  15  12  12   0
  -1  -1  -1  -1  -1  -1  -1  -1  -1  -1  -1  -1  -1  -1  -1  -1  -1  -1  -1  -1  -1  -1  -1  -1  -1  -1  -1  -1  -1  -1  23  14  25  25   0  25  25  12  25  25  15  20  23  12  24  23  23  25  20  25  23  24  18  25  25   1  25  12  25  25  20  25  23  25  18  25  25  25  10  25  10  25  25  25  25  20  24  25   1  25  25  11  16  25  11  25  21  24  15  11  15  12  12   0
  -1  -1  -1  -1  -1  -1  -1  -1  -1  -1  -1  -1  -1  -1  -1  -1  -1  -1  -1  -1  -1  -1  -1  -1  -1  -1  -1  -1  -1  -1  -1  12  24  24  24   0  24  12  24  24  14  18  23  12  24  23  21  24  18  24  23  24  16  24  24  10  24  16  24  24  18  24  23  24  20  24  24  24   1  24   2  24  24  24  24  18  24  24  10  24  24  10  15  24  10  24  20  24  14  10  14  11  12   0
  -1  -1  -1  -1  -1  -1  -1  -1  -1  -1  -1  -1  -1  -1  -1  -1  -1  -1  -1  -1  -1  -1  -1  -1  -1  -1  -1  -1  -1  -1  -1  14  25  25  25  25   0  12  25  25  15  20  23  12  24  23  23  25  20  25  23  24  18  25  25   2  25  11  25  25  20  25  23  25  18  25  25  25  10  25  10  25  25  25  25  20  24  25   2  25  25  11  16  25  12  25  21  24  15  11  15  12  12   0
  -1  -1  -1  -1  -1  -1  -1  -1  -1  -1  -1  -1  -1  -1  -1  -1  -1  -1  -1  -1  -1  -1  -1  -1  -1  -1  -1  -1  -1  -1  -1  11  24  24  24  24  24   0  24  24  12  15  24  15  23  20  18  24  15  24  24  23  14  24  24  12  24  24  24  24  15  24  24  24  23  24  24  24  11  24  11  24  24  24  24  15  23  24  12  24  24  10  12  24  10  24  16  23  12  10  12   0  15   0
  -1  -1  -1  -1  -1  -1  -1  -1  -1  -1  -1  -1  -1  -1  -1  -1  -1  -1  -1  -1  -1  -1  -1  -1  -1  -1  -1  -1  -1  -1  -1  -1  25  25  25  25  25  12   0  25  15  20  23  12  24  23  23  25  20  25  23  24  18  25  25   2  25  11  25  25  20  25  23  25  18  25  25  25  10  25  10  25  25  25  25  20  24  25   2  25  25  11  16  25  12  25  21  24  15  11  15  12  12   0
  -1  -1  -1  -1  -1  -1  -1  -1  -1  -1  -1  -1  -1  -1  -1  -1  -1  -1  -1  -1  -1  -1  -1  -1  -1  -1  -1  -1  -1  -1  -1  -1  -1  -1  24  24  24  12  24   0  14  18  23  12  24  23  21  24  18  24  23  24  16  24  24  10  24  13  24  24  18  24  23  24  20  24  24  24   3  24   0  24  24  24  24  18  24  24  10  24  24  10  15  24  10  24  20  24  14  10  14  11  12   0
  -1  -1  -1  -1  -1  -1  -1  -1  -1  -1  -1  -1  -1  -1  -1  -1  -1  -1  -1  -1  -1  -1  -1  -1  -1  -1  -1  -1  -1  -1  -1  -1  -1  -1  23  23  23  20  23  23   0  12  25  13  21  18  14  23  12  23  25  20  11  23  23  15  23  22  23  23  12  23  25  23  24  23  23  23  14  23  14  23  23  23  23  12  20  23  15  23  23  12  10  23  12  23  12  21   6  12   4  12  20   0
  -1  -1  -1  -1  -1  -1  -1  -1  -1  -1  -1  -1  -1  -1  -1  -1  -1  -1  -1  -1  -1  -1  -1  -1  -1  -1  -1  -1  -1  -1  -1  -1  -1  -1  -1  -1  -1  -1  23  23   6   0  25  13  21  18  14  23  12  23  25  20  11  23  23  15  23  22  23  23  12  23  25  23  24  23  23  23  14  23  14  23  23  23  23  12  20  23  15  23  23  12  10  23  12  23  12  21   6  12   4  12  20   0
  -1  -1  -1  -1  -1  -1  -1  -1  -1  -1  -1  -1  -1  -1  -1  -1  -1  -1  -1  -1  -1  -1  -1  -1  -1  -1  -1  -1  -1  -1  -1  -1  -1  -1  -1  -1  -1  -1   0   0  23  18   0  23  10  18  15   0  18   0  33  11  20   0   0  25   0  24   0   0  18   0  31   0  30   0   0   0  24   0  24   0   0   0   0  18  11   0  25   0   0  24  21   0  24   0  16  10  23  24  23  24  27   0
  -1  -1  -1  -1  -1  -1  -1  -1  -1  -1  -1  -1  -1  -1  -1  -1  -1  -1  -1  -1  -1  -1  -1  -1  -1  -1  -1  -1  -1  -1  -1  -1  -1  -1  -1  -1  -1  -1  -1  31  25  27   0   0  31  28  28  31  27  31  10  31  26  31  31  23  31  24  31  31  27  31   0  31  12  31  31  31  23  31  23  31  31  31  31  27  31  31  23  31  31  23  25  31  23  31  27  31  25  23  25  24  18   0
  -1  -1  -1  -1  -1  -1  -1  -1  -1  -1  -1  -1  -1  -1  -1  -1  -1  -1  -1  -1  -1  -1  -1  -1  -1  -1  -1  -1  -1  -1  -1  -1  -1  -1  -1  -1  -1  -1  -1  -1  21  16  31  23   0  12  14  14  16  14  31  15  18  14  14  24  14  24  14  14  16  14  31  14  29  14  14  14  24  14  24  14  14  14  14  16  15  14  24  14  14  24  20  14  24  14  15  15  21  24  21  23  26   0
  -1  -1  -1  -1  -1  -1  -1  -1  -1  -1  -1  -1  -1  -1  -1  -1  -1  -1  -1  -1  -1  -1  -1  -1  -1  -1  -1  -1  -1  -1  -1  -1  -1  -1  -1  -1  -1  -1  -1  -1  -1  16  31  23   0   0  14  10  16  10  31  10  18  10  10  24  10  24  10  10  16  10  31  10  29  10  10  10  24  10  24  10  10  10  10  16  10  10  24  10  10  24  20  10  24  10  15   0  21  24  21  23  26   0
  -1  -1  -1  -1  -1  -1  -1  -1  -1  -1  -1  -1  -1  -1  -1  -1  -1  -1  -1  -1  -1  -1  -1  -1  -1  -1  -1  -1  -1  -1  -1  -1  -1  -1  -1  -1  -1  -1  -1  -1  -1  10  27  15  15  19   0  16  10  16  28  14  11  16  16  21  16  24  16  16  11  16  27  16  25  16  16  16  20  16  20  16  16  16  16  10  14  16  21  16  16  18  12  16  18  16   6  15  12  18  12  16  23   0
  -1  -1  -1  -1  -1  -1  -1  -1  -1  -1  -1  -1  -1  -1  -1  -1  -1  -1  -1  -1  -1  -1  -1  -1  -1  -1  -1  -1  -1  -1  -1  -1  -1  -1  -1  -1  -1  -1  -1  -1  -1  11  28  16  14  10   1   0  11  15  28  12  12  15  15  23  15  21  15  15  11  15  28  15  26  15  15  15  21  15  21  15  15  15  15  11  12  15  23  15  15  20  12  15  20  15  10  14  14  20  14  18  24   0
  -1  -1  -1  -1  -1  -1  -1  -1  -1  -1  -1  -1  -1  -1  -1  -1  -1  -1  -1  -1  -1  -1  -1  -1  -1  -1  -1  -1  -1  -1  -1  -1  -1  -1  -1  -1  -1  -1  -1  -1  -1  11  25  13  20  18  12  21   0  21  26  18  10  21  21  16  21  22  21  21  11  21  25  21  24  21  21  21  15  21  15  21  21  21  21  11  18  21  16  21  21  14   5  21  14  21  12  20  10  14  10  12  21   0
  -1  -1  -1  -1  -1  -1  -1  -1  -1  -1  -1  -1  -1  -1  -1  -1  -1  -1  -1  -1  -1  -1  -1  -1  -1  -1  -1  -1  -1  -1  -1  -1  -1  -1  -1  -1  -1  -1  -1  -1  -1  23  16  18  27  24  24  27  23   0  18  26  23  27  27  12  27  17  27  27  23  27  16  27  12  27  27  27  14  27  14  27  27  27  27  23  26  27  12  27  27  15  23  27  15  27  24  27  21  15  21  16  10   0
  -1  -1  -1  -1  -1  -1  -1  -1  -1  -1  -1  -1  -1  -1  -1  -1  -1  -1  -1  -1  -1  -1  -1  -1  -1  -1  -1  -1  -1  -1  -1  -1  -1  -1  -1  -1  -1  -1  -1  -1  -1  -1  -1  24  31  29  28  33  27  33   0  31  27  33  33  23  33  24  33  33  27  33  10  33  12  33  33  33  23  33  23  33  33  33  33  27  31  33  23  33  33  24  26  33  24  33  28  31  25  24  25  24  20   0
  -1  -1  -1  -1  -1  -1  -1  -1  -1  -1  -1  -1  -1  -1  -1  -1  -1  -1  -1  -1  -1  -1  -1  -1  -1  -1  -1  -1  -1  -1  -1  -1  -1  -1  -1  -1  -1  -1  -1  -1  -1  18  31  23  10  18  15   0  18   0  33   0  20   0   0  25   0  24   0   0  18   0  31   0  30   0   0   0  24   0  24   0   0   0   0  18  11   0  25   0   0  24  21   0  24   0  16  10  23  24  23  24  27   0
  -1  -1  -1  -1  -1  -1  -1  -1  -1  -1  -1  -1  -1  -1  -1  -1  -1  -1  -1  -1  -1  -1  -1  -1  -1  -1  -1  -1  -1  -1  -1  -1  -1  -1  -1  -1  -1  -1  -1  -1  -1  -1  -1  -1  10  19  12  11  15  11  31   0   0  11  11  24  11  24  11  11  15  11  31  11  28  11  11  11  24  11  24  11  11  11  11  15   0  11  24  11  11  23  18  11  23  11  14  10  20  23  20  23  25   0
  -1  -1  -1  -1  -1  -1  -1  -1  -1  -1  -1  -1  -1  -1  -1  -1  -1  -1  -1  -1  -1  -1  -1  -1  -1  -1  -1  -1  -1  -1  -1  -1  -1  -1  -1  -1  -1  -1  -1  -1  -1  -1  -1  -1  -1  -1  -1  -1  -1  27  18  26  23   0  27  12  27  17  27  27  23  27  16  27  12  27  27  27  14  27  14  27  27  27  27  23  26  27  12  27  27  15  23  27  15  27  24  27  21  15  21  16  10   0
  -1  -1  -1  -1  -1  -1  -1  -1  -1  -1  -1  -1  -1  -1  -1  -1  -1  -1  -1  -1  -1  -1  -1  -1  -1  -1  -1  -1  -1  -1  -1  -1  -1  -1  -1  -1  -1  -1  -1  -1  -1  -1  -1  -1  -1  -1  -1  -1  -1  -1  28  12  12  15   0  23  15  21  15  15  11  15  28  15  26  15  15  15  21  15  21  15  15  15  15  11  12  15  23  15  15  20  12  15  20  15  10  14  14  20  14  18  24   0
  -1  -1  -1  -1  -1  -1  -1  -1  -1  -1  -1  -1  -1  -1  -1  -1  -1  -1  -1  -1  -1  -1  -1  -1  -1  -1  -1  -1  -1  -1  -1  -1  -1  -1  -1  -1  -1  -1  -1  -1  -1  -1  -1  -1  -1  -1  -1  -1  -1  -1  -1  -1  18  25  25   0  25  24  25  25  20  25  23  25  18  25  25  25  10  25  10  25  25  25  25  20  24  25  10  25  25  11  16  25  11  25  21  24  15  11  15  12  12   0
  -1  -1  -1  -1  -1  -1  -1  -1  -1  -1  -1  -1  -1  -1  -1  -1  -1  -1  -1  -1  -1  -1  -1  -1  -1  -1  -1  -1  -1  -1  -1  -1  -1  -1  -1  -1  -1  -1  -1  -1  -1  -1  -1  -1  -1  -1  -1  -1  -1  -1  -1  -1  12  15  15  23   0  21  15  15  11  15  28  15  26  15  15  15  21  15  21  15  15  15  15  11  12  15  23  15  15  20  12  15  20  15  10  14  14  20  14  18  24   0
  -1  -1  -1  -1  -1  -1  -1  -1  -1  -1  -1  -1  -1  -1  -1  -1  -1  -1  -1  -1  -1  -1  -1  -1  -1  -1  -1  -1  -1  -1  -1  -1  -1  -1  -1  -1  -1  -1  -1  -1  -1  -1  -1  -1  -1  -1  -1  -1  -1  -1  -1  -1  18  25  25  10  25   0  25  25  20  25  23  25  18  25  25  25  10  25  10  25  25  25  25  20  24  25  10  25  25  11  16  25  11  25  21  24  15  11  15  12  12   0
  -1  -1  -1  -1  -1  -1  -1  -1  -1  -1  -1  -1  -1  -1  -1  -1  -1  -1  -1  -1  -1  -1  -1  -1  -1  -1  -1  -1  -1  -1  -1  -1  -1  -1  -1  -1  -1  -1  -1  -1  -1  -1  -1  -1  -1  -1  -1  -1  -1  -1  -1  -1  -1  15  15  23  15  21   0  15  11  15  28  15  26  15  15  15  21  15  21  15  15  15  15  11  12  15  23  15  15  20  12  15  20  15  10  14  14  20  14  18  24   0
  -1  -1  -1  -1  -1  -1  -1  -1  -1  -1  -1  -1  -1  -1  -1  -1  -1  -1  -1  -1  -1  -1  -1  -1  -1  -1  -1  -1  -1  -1  -1  -1  -1  -1  -1  -1  -1  -1  -1  -1  -1  -1  -1  -1  -1  -1  -1  -1  -1  -1  -1  -1  -1  27  27  12  27  15  27   0  23  27  16  27  12  27  27  27  14  27  14  27  27  27  27  23  26  27  12  27  27  15  23  27  15  27  24  27  21  15  21  16  10   0
  -1  -1  -1  -1  -1  -1  -1  -1  -1  -1  -1  -1  -1  -1  -1  -1  -1  -1  -1  -1  -1  -1  -1  -1  -1  -1  -1  -1  -1  -1  -1  -1  -1  -1  -1  -1  -1  -1  -1  -1  -1  -1  -1  -1  -1  -1  -1  -1  -1  -1  -1  -1  -1  23  23  15  23  22  23  23   0  23  25  23  24  23  23  23  14  23  14  23  23  23  23  12  20  23  15  23  23  12  10  23  12  23  12  21   6  12   4  12  20   0
  -1  -1  -1  -1  -1  -1  -1  -1  -1  -1  -1  -1  -1  -1  -1  -1  -1  -1  -1  -1  -1  -1  -1  -1  -1  -1  -1  -1  -1  -1  -1  -1  -1  -1  -1  -1  -1  -1  -1  -1  -1  -1  -1  -1  -1  -1  -1  -1  -1  -1  -1  -1  -1  -1  -1  12  27  16  27  27  23   0  16  27  12  27  27  27  14  27  14  27  27  27  27  23  26  27  12  27  27  15  23  27  15  27  24  27  21  15  21  16  10   0
  -1  -1  -1  -1  -1  -1  -1  -1  -1  -1  -1  -1  -1  -1  -1  -1  -1  -1  -1  -1  -1  -1  -1  -1  -1  -1  -1  -1  -1  -1  -1  -1  -1  -1  -1  -1  -1  -1  -1  -1  -1  -1  -1  -1  -1  -1  -1  -1  -1  -1  -1  -1  -1  -1  -1  25   0  24   0   0  18   0   0   0  30   0   0   0  24   0  24   0   0   0   0  18  11   0  25   0   0  24  21   0  24   0  16  10  23  24  23  24  27   0
  -1  -1  -1  -1  -1  -1  -1  -1  -1  -1  -1  -1  -1  -1  -1  -1  -1  -1  -1  -1  -1  -1  -1  -1  -1  -1  -1  -1  -1  -1  -1  -1  -1  -1  -1  -1  -1  -1  -1  -1  -1  -1  -1  -1  -1  -1  -1  -1  -1  -1  -1  -1  -1  -1  -1  -1  23  16  23  23  12  23  25   0  24  23  23  23  14  23  14  23  23  23  23  12  20  23  15  23  23  12  10  23  12  23  12  21   0  12   2  12  20   0
  -1  -1  -1  -1  -1  -1  -1  -1  -1  -1  -1  -1  -1  -1  -1  -1  -1  -1  -1  -1  -1  -1  -1  -1  -1  -1  -1  -1  -1  -1  -1  -1  -1  -1  -1  -1  -1  -1  -1  -1  -1  -1  -1  -1  -1  -1  -1  -1  -1  -1  -1  -1  -1  -1  -1  -1  31  24  31  31  27  31   0  31   0  31  31  31  23  31  23  31  31  31  31  27  31  31  23  31  31  23  25  31  23  31  27  31  25  23  25  24  18   0
  -1  -1  -1  -1  -1  -1  -1  -1  -1  -1  -1  -1  -1  -1  -1  -1  -1  -1  -1  -1  -1  -1  -1  -1  -1  -1  -1  -1  -1  -1  -1  -1  -1  -1  -1  -1  -1  -1  -1  -1  -1  -1  -1  -1  -1  -1  -1  -1  -1  -1  -1  -1  -1  -1  -1  -1  -1  -1  18  18  11  18  27  18  25   0  18  18  18  18  18  18  18  18  18   9  15  18  20  18  18  16  11  18  16  18  10  16  12  16  12  15  23   0
  -1  -1  -1  -1  -1  -1  -1  -1  -1  -1  -1  -1  -1  -1  -1  -1  -1  -1  -1  -1  -1  -1  -1  -1  -1  -1  -1  -1  -1  -1  -1  -1  -1  -1  -1  -1  -1  -1  -1  -1  -1  -1  -1  -1  -1  -1  -1  -1  -1  -1  -1  -1  -1  -1  -1  -1  -1  -1  -1  24  15  24  24  24  23  24   0  24  11  24  11  24  24  24  24  15  23  24  12  24  24  10  12  24  10  24  16  23  12  10  12  10  15   0
  -1  -1  -1  -1  -1  -1  -1  -1  -1  -1  -1  -1  -1  -1  -1  -1  -1  -1  -1  -1  -1  -1  -1  -1  -1  -1  -1  -1  -1  -1  -1  -1  -1  -1  -1  -1  -1  -1  -1  -1  -1  -1  -1  -1  -1  -1  -1  -1  -1  -1  -1  -1  -1  -1  -1  -1  -1  -1  -1  27  23  27  18  27  14  27  27   0  12  27  12  27  27  27  27  23  25  27  12  27  27  14  21  27  14  27  23  26  20  14  20  15   0   0
  -1  -1  -1  -1  -1  -1  -1  -1  -1  -1  -1  -1  -1  -1  -1  -1  -1  -1  -1  -1  -1  -1  -1  -1  -1  -1  -1  -1  -1  -1  -1  -1  -1  -1  -1  -1  -1  -1  -1  -1  -1  -1  -1  -1  -1  -1  -1  -1  -1  -1  -1  -1  -1  -1  -1  -1  -1  -1  -1  23  12  23  25  23  24  23  23  23   0  23  14  23  23  23  23  12  20  23  15  23  23  12  10  23  12  23  12  21   6  12   4  12  20   0
  -1  -1  -1  -1  -1  -1  -1  -1  -1  -1  -1  -1  -1  -1  -1  -1  -1  -1  -1  -1  -1  -1  -1  -1  -1  -1  -1  -1  -1  -1  -1  -1  -1  -1  -1  -1  -1  -1  -1  -1  -1  -1  -1  -1  -1  -1  -1  -1  -1  -1  -1  -1  -1  -1  -1  -1  -1  -1  -1  -1  12  23  25  23  24  23  23  23  14   0  14  23  23  23  23  12  20  23  15  23  23  12  10  23  12  23  12  21   8  12   5  12  20   0
  -1  -1  -1  -1  -1  -1  -1  -1  -1  -1  -1  -1  -1  -1  -1  -1  -1  -1  -1  -1  -1  -1  -1  -1  -1  -1  -1  -1  -1  -1  -1  -1  -1  -1  -1  -1  -1  -1  -1  -1  -1  -1  -1  -1  -1  -1  -1  -1  -1  -1  -1  -1  -1  -1  -1  -1  -1  -1  -1  -1  -1  16  27  16  25  16  16  16  20  16   0  16  16  16  16  10  14  16  21  16  16  18  12  16  18  16   6  15  12  18  12  16  23   0
  -1  -1  -1  -1  -1  -1  -1  -1  -1  -1  -1  -1  -1  -1  -1  -1  -1  -1  -1  -1  -1  -1  -1  -1  -1  -1  -1  -1  -1  -1  -1  -1  -1  -1  -1  -1  -1  -1  -1  -1  -1  -1  -1  -1  -1  -1  -1  -1  -1  -1  -1  -1  -1  -1  -1  -1  -1  -1  -1  -1  -1  23  25  23  24  23  23  23  14  23  14   0  23  23  23  12  20  23  15  23  23  12  10  23  12  23  12  21   3  12   6  12  20   0
  -1  -1  -1  -1  -1  -1  -1  -1  -1  -1  -1  -1  -1  -1  -1  -1  -1  -1  -1  -1  -1  -1  -1  -1  -1  -1  -1  -1  -1  -1  -1  -1  -1  -1  -1  -1  -1  -1  -1  -1  -1  -1  -1  -1  -1  -1  -1  -1  -1  -1  -1  -1  -1  -1  -1  -1  -1  -1  -1  -1  -1  -1  -1  27  12  27  27  27  14  27  14  27   0  27  27  23  26  27  12  27  27  15  23  27  15  27  24  27  21  15  21  16  10   0
  -1  -1  -1  -1  -1  -1  -1  -1  -1  -1  -1  -1  -1  -1  -1  -1  -1  -1  -1  -1  -1  -1  -1  -1  -1  -1  -1  -1  -1  -1  -1  -1  -1  -1  -1  -1  -1  -1  -1  -1  -1  -1  -1  -1  -1  -1  -1  -1  -1  -1  -1  -1  -1  -1  -1  -1  -1  -1  -1  -1  -1  -1  -1  -1  -1  18  18  18  18  18  18  18  18   0  18   2  15  18  20  18  18  16  11  18  16  18  10  16  12  16  12  15  23   0
  -1  -1  -1  -1  -1  -1  -1  -1  -1  -1  -1  -1  -1  -1  -1  -1  -1  -1  -1  -1  -1  -1  -1  -1  -1  -1  -1  -1  -1  -1  -1  -1  -1  -1  -1  -1  -1  -1  -1  -1  -1  -1  -1  -1  -1  -1  -1  -1  -1  -1  -1  -1  -1  -1  -1  -1  -1  -1  -1  -1  -1  -1  -1  -1  -1  -1  23  23  12  23  12  23  23  23   0  12  21  23  14  23  23  12  11  23  12  23  14  23  10  12  10  11  18   0
  -1  -1  -1  -1  -1  -1  -1  -1  -1  -1  -1  -1  -1  -1  -1  -1  -1  -1  -1  -1  -1  -1  -1  -1  -1  -1  -1  -1  -1  -1  -1  -1  -1  -1  -1  -1  -1  -1  -1  -1  -1  -1  -1  -1  -1  -1  -1  -1  -1  -1  -1  -1  -1  -1  -1  -1  -1  -1  -1  -1  -1  -1  -1  -1  -1  -1  -1  18  18  18  18  18  18  18  18   0  15  18  20  18  18  16  11  18  16  18  10  16  12  16  12  15  23   0
  -1  -1  -1  -1  -1  -1  -1  -1  -1  -1  -1  -1  -1  -1  -1  -1  -1  -1  -1  -1  -1  -1  -1  -1  -1  -1  -1  -1  -1  -1  -1  -1  -1  -1  -1  -1  -1  -1  -1  -1  -1  -1  -1  -1  -1  -1  -1  -1  -1  -1  -1  -1  -1  -1  -1  -1  -1  -1  -1  -1  -1   0  31   0  30   0   0   0  24   0  24   0   0   0   0  18   0   0  25   0   0  24  21   0  24   0  16  10  23  24  23  24  27   0
  -1  -1  -1  -1  -1  -1  -1  -1  -1  -1  -1  -1  -1  -1  -1  -1  -1  -1  -1  -1  -1  -1  -1  -1  -1  -1  -1  -1  -1  -1  -1  -1  -1  -1  -1  -1  -1  -1  -1  -1  -1  -1  -1  -1  -1  -1  -1  -1  -1  -1  -1  -1  -1  -1  -1  -1  -1  -1  -1  -1  -1  -1  -1  -1  -1  -1  -1  28  15  28  15  28  28  28  28  24  27   0  14  28  28  16  23  28  16  28  24  27  23  16  23  18  11   0
  -1  -1  -1  -1  -1  -1  -1  -1  -1  -1  -1  -1  -1  -1  -1  -1  -1  -1  -1  -1  -1  -1  -1  -1  -1  -1  -1  -1  -1  -1  -1  -1  -1  -1  -1  -1  -1  -1  -1  -1  -1  -1  -1  -1  -1  -1  -1  -1  -1  -1  -1  -1  -1  -1  -1  -1  -1  -1  -1  -1  -1  -1  -1  -1  -1  -1  -1  -1  -1  25  10  25  25  25  25  20  24  25   0  25  25  11  16  25  11  25  21  24  15  11  15  12  12   0
  -1  -1  -1  -1  -1  -1  -1  -1  -1  -1  -1  -1  -1  -1  -1  -1  -1  -1  -1  -1  -1  -1  -1  -1  -1  -1  -1  -1  -1  -1  -1  -1  -1  -1  -1  -1  -1  -1  -1  -1  -1  -1  -1  -1  -1  -1  -1  -1  -1  -1  -1  -1  -1  -1  -1  -1  -1  -1  -1  -1  -1  -1  -1  -1  -1  -1  -1  -1  -1  -1  18  18  18  18  18   3  -1  18  20   0  18  16  11  18  16  18  10  16  12  16  12  15  23   0
  -1  -1  -1  -1  -1  -1  -1  -1  -1  -1  -1  -1  -1  -1  -1  -1  -1  -1  -1  -1  -1  -1  -1  -1  -1  -1  -1  -1  -1  -1  -1  -1  -1  -1  -1  -1  -1  -1  -1  -1  -1  -1  -1  -1  -1  -1  -1  -1  -1  -1  -1  -1  -1  -1  -1  -1  -1  -1  -1  -1  -1  -1  -1  -1  -1  -1  -1  -1  -1  -1  -1  -1  28  28  28  24  -1  28  14  28   0  16  23  28  16  28  24  27  23  16  23  18  11   0
  -1  -1  -1  -1  -1  -1  -1  -1  -1  -1  -1  -1  -1  -1  -1  -1  -1  -1  -1  -1  -1  -1  -1  -1  -1  -1  -1  -1  -1  -1  -1  -1  -1  -1  -1  -1  -1  -1  -1  -1  -1  -1  -1  -1  -1  -1  -1  -1  -1  -1  -1  -1  -1  -1  -1  -1  -1  -1  -1  -1  -1  -1  -1  -1  -1  -1  -1  -1  -1  -1  24  11  11  11  11  15   0  11  24  11  11   0  18  11  23  11  14  10  20  23  20  23  25   0
  -1  -1  -1  -1  -1  -1  -1  -1  -1  -1  -1  -1  -1  -1  -1  -1  -1  -1  -1  -1  -1  -1  -1  -1  -1  -1  -1  -1  -1  -1  -1  -1  -1  -1  -1  -1  -1  -1  -1  -1  -1  -1  -1  -1  -1  -1  -1  -1  -1  -1  -1  -1  -1  -1  -1  -1  -1  -1  -1  -1  -1  -1  -1  -1  -1  -1  -1  -1  -1  -1  -1  -1  21  21  21  11  -1  21  16  21  21  14   0  21  14  21  12  20  10  14  10  12  21   0
  -1  -1  -1  -1  -1  -1  -1  -1  -1  -1  -1  -1  -1  -1  -1  -1  -1  -1  -1  -1  -1  -1  -1  -1  -1  -1  -1  -1  -1  -1  -1  -1  -1  -1  -1  -1  -1  -1  -1  -1  -1  -1  -1  -1  -1  -1  -1  -1  -1  -1  -1  -1  -1  -1  -1  -1  -1  -1  -1  -1  -1  -1  -1  -1  -1  -1  -1  -1  -1  -1  -1  -1  28  28  28  24  -1  28  14  28  28  16  23   0  16  28  24  27  23  16  23  18  11   0
  -1  -1  -1  -1  -1  -1  -1  -1  -1  -1  -1  -1  -1  -1  -1  -1  -1  -1  -1  -1  -1  -1  -1  -1  -1  -1  -1  -1  -1  -1  -1  -1  -1  -1  -1  -1  -1  -1  -1  -1  -1  -1  -1  -1  -1  -1  -1  -1  -1  -1  -1  -1  -1  -1  -1  -1  -1  -1  -1  -1  -1  -1  -1  -1  -1  -1   0   0  24   0  24   0   0   0   0  18  11   0  25   0   0  24  21   0   0   0  16  10  23  24  23  24  27   0
  -1  -1  -1  -1  -1  -1  -1  -1  -1  -1  -1  -1  -1  -1  -1  -1  -1  -1  -1  -1  -1  -1  -1  -1  -1  -1  -1  -1  -1  -1  -1  -1  -1  -1  -1  -1  -1  -1  -1  -1  -1  -1  -1  -1  -1  -1  -1  -1  -1  -1  -1  -1  -1  -1  -1  -1  -1  -1  -1  -1  -1  -1  -1  -1  -1  -1  -1  -1  -1  -1  -1  -1  -1  -1  -1  24  -1  28  14  28  28  16  23  28  16   0  24  27  23  16  23  18  11   0
  -1  -1  -1  -1  -1  -1  -1  -1  -1  -1  -1  -1  -1  -1  -1  -1  -1  -1  -1  -1  -1  -1  -1  -1  -1  -1  -1  -1  -1  -1  -1  -1  -1  -1  -1  -1  -1  -1  -1  -1  -1  -1  -1  -1  -1  -1  -1  -1  -1  -1  -1  -1  -1  -1  -1  -1  -1  -1  -1  -1  -1  -1  -1  -1  -1  -1  -1  -1  -1  -1  -1  -1  -1  -1  -1  -1  -1  -1  16  21  21  14   6  21  14  21   0  20  10  14  10  12  21   0
  -1  -1  -1  -1  -1  -1  -1  -1  -1  -1  -1  -1  -1  -1  -1  -1  -1  -1  -1  -1  -1  -1  -1  -1  -1  -1  -1  -1  -1  -1  -1  -1  -1  -1  -1  -1  -1  -1  -1  -1  -1  -1  -1  -1  -1  -1  -1  -1  -1  -1  -1  -1  -1  -1  -1  -1  -1  -1  -1  -1  -1  -1  -1  -1  -1  -1  -1  -1  -1  -1  -1  -1  -1  -1  -1  -1  -1  -1  -1   0   0  24  21   0  -1   0  16   0  23  24  23  24  27   0
  -1  -1  -1  -1  -1  -1  -1  -1  -1  -1  -1  -1  -1  -1  -1  -1  -1  -1  -1  -1  -1  -1  -1  -1  -1  -1  -1  -1  -1  -1  -1  -1  -1  -1  -1  -1  -1  -1  -1  -1  -1  -1  -1  -1  -1  -1  -1  -1  -1  -1  -1  -1  -1  -1  -1  -1  -1  -1  -1  -1  -1  -1  -1  -1  -1  -1  -1  -1  -1  -1  -1  -1  -1  -1  -1  -1  -1  -1  -1  24  24  10  14  24  -1  24  18  24   0  10  12  10  14   0
  -1  -1  -1  -1  -1  -1  -1  -1  -1  -1  -1  -1  -1  -1  -1  -1  -1  -1  -1  -1  -1  -1  -1  -1  -1  -1  -1  -1  -1  -1  -1  -1  -1  -1  -1  -1  -1  -1  -1  -1  -1  -1  -1  -1  -1  -1  -1  -1  -1  -1  -1  -1  -1  -1  -1  -1  -1  -1  -1  -1  -1  -1  -1  -1  -1  -1  -1  -1  -1  -1  -1  -1  -1  -1  -1  -1  -1  -1  -1  -1  10  -1  20  10  -1  10  15   0  21   0  21  23  26   0
  -1  -1  -1  -1  -1  -1  -1  -1  -1  -1  -1  -1  -1  -1  -1  -1  -1  -1  -1  -1  -1  -1  -1  -1  -1  -1  -1  -1  -1  -1  -1  -1  -1  -1  -1  -1  -1  -1  -1  -1  -1  -1  -1  -1  -1  -1  -1  -1  -1  -1  -1  -1  -1  -1  -1  -1  -1  -1  -1  -1  -1  -1  -1  -1  -1  -1  -1  -1  -1  -1  -1  -1  -1  -1  -1  -1  -1  -1  -1  -1  -1  -1  -1  -1  -1  -1  -1  -1  -1  -1   0  12  20   0
  -1  -1  -1  -1  -1  -1  -1  -1  -1  -1  -1  -1  -1  -1  -1  -1  -1  -1  -1  -1  -1  -1  -1  -1  -1  -1  -1  -1  -1  -1  -1  -1  -1  -1  -1  -1  -1  -1  -1  -1  -1  -1  -1  -1  -1  -1  -1  -1  -1  -1  -1  -1  -1  -1  -1  -1  -1  -1  -1  -1  -1  -1  -1  -1  -1  -1  -1  -1  -1  -1  -1  -1  -1  -1  -1  -1  -1  -1  -1  -1  -1  -1  -1  -1  -1  -1  -1  -1  -1  -1  12   0  14   0
  -1  -1  -1  -1  -1  -1  -1  -1  -1  -1  -1  -1  -1  -1  -1  -1  -1  -1  -1  -1  -1  -1  -1  -1  -1  -1  -1  -1  -1  -1  -1  -1  -1  -1  -1  -1  -1  -1  -1  -1  -1  -1  -1  -1  -1  -1  -1  -1  -1  -1  -1  -1  -1  -1  -1  -1  -1  -1  -1  -1  -1  -1  -1  -1  -1  -1  -1  -1  -1  -1  -1  -1  -1  -1  -1  -1  -1  -1  -1  -1  -1  -1  -1  -1  -1  -1  -1  -1  -1  -1  12   0   0   0
  -1  -1  -1  -1  -1  -1  -1  -1  -1  -1  -1  -1  -1  -1  -1  -1  -1  -1  -1  -1  -1  -1  -1  -1  -1  -1  -1  -1  -1  -1  -1  -1  -1  -1  -1  -1  -1  -1  -1  -1  -1  -1  -1  -1  -1  -1  -1  -1  -1  -1  -1  -1  -1  -1  -1  -1  -1  -1  -1  -1  -1  -1  -1  -1  -1  -1  -1  -1  -1  -1  -1  -1  -1  -1  -1  -1  -1  -1  -1  -1  -1  -1  -1  -1  -1  -1  -1  -1  -1  -1  -1  -1  -1   0
